(set-info :Origin "This instance was generated by: BanditFuzz-- an RL fuzzer for SMT solvers" )
(set-info :Author "Joe Scott, Fed Mora, Vijay Ganesh" )
(set-info :Contact "Joe Scott, joseph.scott@uwaterloo.ca")
(set-logic QF_BV)
(declare-const bool_0 Bool)
(declare-const bool_1 Bool)
(declare-const bool_2 Bool)
(declare-const bool_3 Bool)
(declare-const bool_4 Bool)
(declare-const bv_0 (_ BitVec 32))
(declare-const bv_1 (_ BitVec 32))
(declare-const bv_2 (_ BitVec 32))
(declare-const bv_3 (_ BitVec 32))
(declare-const bv_4 (_ BitVec 32))
(assert (bvuge (bvor (bvmul bv_4 bv_3) (bvmul bv_0 bv_1)) (bvsrem (bvsub #xc90d34f4  bv_0) (bvudiv bv_3 #x34d3af5c ))))
(assert (and (bvsle (bvor bv_1 #xf5cae01d ) (bvor #x2d4f5777  bv_1)) (bvsge (bvshl #x19a1b2d0  #xa9111415 ) (bvlshr bv_3 bv_0))))
(assert (bvule (bvor (bvnor bv_1 bv_2) (bvxnor #x1d930f76  #xfaea9db7 )) (bvnand (bvurem bv_0 bv_4) (bvsdiv bv_0 bv_4))))
(assert (bvsle (bvsmod (bvnand #x663f8df3  bv_2) (bvand bv_1 #x681a6003 )) (bvxor (bvor bv_3 #x89b4e072 ) (bvnor bv_2 bv_2))))
(assert (bvult (bvshl (bvmul #x3b92a316  bv_3) (bvor #x4f18f322  bv_2)) (bvxnor (bvlshr #x8c088c8c  #x23d7b0ec ) (bvurem bv_1 bv_0))))
(check-sat)
(exit)
